p cnf 161 654
-1 
2 
-3 
4 
-5 
6 
7 -19 
-7 19 
8 -20 
-8 20 
9 -21 
-9 21 
10 -22 
-10 22 
11 -23 
-11 23 
12 -24 
-12 24 
-25 
26 -19 
-26 19 
27 -20 
-27 20 
28 -21 
-28 21 
29 -22 
-29 22 
30 -23 
-30 23 
-31 
32 -25 
-32 25 
33 -26 
-33 26 
34 -27 
-34 27 
35 -28 
-35 28 
36 -29 
-36 29 
-37 
38 -31 
-38 31 
39 -32 
-39 32 
40 -33 
-40 33 
41 -34 
-41 34 
42 -35 
-42 35 
-43 
44 -37 
-44 37 
45 -38 
-45 38 
46 -39 
-46 39 
47 -40 
-47 40 
48 -41 
-48 41 
-49 
50 -43 
-50 43 
51 -44 
-51 44 
52 -45 
-52 45 
53 -46 
-53 46 
54 -47 
-54 47 
13 -90 
19 -90 
90 -13 -19 
13 -91 
20 -91 
91 -13 -20 
13 -92 
21 -92 
92 -13 -21 
13 -93 
22 -93 
93 -13 -22 
13 -94 
23 -94 
94 -13 -23 
13 -95 
24 -95 
95 -13 -24 
14 -96 
25 -96 
96 -14 -25 
14 -97 
26 -97 
97 -14 -26 
14 -98 
27 -98 
98 -14 -27 
14 -99 
28 -99 
99 -14 -28 
14 -100 
29 -100 
100 -14 -29 
14 -101 
30 -101 
101 -14 -30 
15 -102 
31 -102 
102 -15 -31 
15 -103 
32 -103 
103 -15 -32 
15 -104 
33 -104 
104 -15 -33 
15 -105 
34 -105 
105 -15 -34 
15 -106 
35 -106 
106 -15 -35 
15 -107 
36 -107 
107 -15 -36 
16 -108 
37 -108 
108 -16 -37 
16 -109 
38 -109 
109 -16 -38 
16 -110 
39 -110 
110 -16 -39 
16 -111 
40 -111 
111 -16 -40 
16 -112 
41 -112 
112 -16 -41 
16 -113 
42 -113 
113 -16 -42 
17 -114 
43 -114 
114 -17 -43 
17 -115 
44 -115 
115 -17 -44 
17 -116 
45 -116 
116 -17 -45 
17 -117 
46 -117 
117 -17 -46 
17 -118 
47 -118 
118 -17 -47 
17 -119 
48 -119 
119 -17 -48 
18 -120 
49 -120 
120 -18 -49 
18 -121 
50 -121 
121 -18 -50 
18 -122 
51 -122 
122 -18 -51 
18 -123 
52 -123 
123 -18 -52 
18 -124 
53 -124 
124 -18 -53 
18 -125 
54 -125 
125 -18 -54 
90 -126 
-90 126 
91 -127 
-91 127 
92 -128 
-92 128 
93 -129 
-93 129 
94 -130 
-94 130 
95 -131 
-95 131 
-55 
-61 
-56 126 55 
-56 126 96 
-56 96 55 
56 -126 -55 
56 -126 -96 
56 -96 -55 
-57 127 56 
-57 127 97 
-57 97 56 
57 -127 -56 
57 -127 -97 
57 -97 -56 
-58 128 57 
-58 128 98 
-58 98 57 
58 -128 -57 
58 -128 -98 
58 -98 -57 
-59 129 58 
-59 129 99 
-59 99 58 
59 -129 -58 
59 -129 -99 
59 -99 -58 
-60 130 59 
-60 130 100 
-60 100 59 
60 -130 -59 
60 -130 -100 
60 -100 -59 
-61 131 60 
-61 131 101 
-61 101 60 
61 -131 -60 
61 -131 -101 
61 -101 -60 
132 96 126 -55 
132 96 -126 55 
132 -96 126 55 
132 -96 -126 -55 
-132 96 126 55 
-132 96 -126 -55 
-132 -96 126 -55 
-132 -96 -126 55 
133 97 127 -56 
133 97 -127 56 
133 -97 127 56 
133 -97 -127 -56 
-133 97 127 56 
-133 97 -127 -56 
-133 -97 127 -56 
-133 -97 -127 56 
134 98 128 -57 
134 98 -128 57 
134 -98 128 57 
134 -98 -128 -57 
-134 98 128 57 
-134 98 -128 -57 
-134 -98 128 -57 
-134 -98 -128 57 
135 99 129 -58 
135 99 -129 58 
135 -99 129 58 
135 -99 -129 -58 
-135 99 129 58 
-135 99 -129 -58 
-135 -99 129 -58 
-135 -99 -129 58 
136 100 130 -59 
136 100 -130 59 
136 -100 130 59 
136 -100 -130 -59 
-136 100 130 59 
-136 100 -130 -59 
-136 -100 130 -59 
-136 -100 -130 59 
137 101 131 -60 
137 101 -131 60 
137 -101 131 60 
137 -101 -131 -60 
-137 101 131 60 
-137 101 -131 -60 
-137 -101 131 -60 
-137 -101 -131 60 
-62 
-68 
-63 132 62 
-63 132 102 
-63 102 62 
63 -132 -62 
63 -132 -102 
63 -102 -62 
-64 133 63 
-64 133 103 
-64 103 63 
64 -133 -63 
64 -133 -103 
64 -103 -63 
-65 134 64 
-65 134 104 
-65 104 64 
65 -134 -64 
65 -134 -104 
65 -104 -64 
-66 135 65 
-66 135 105 
-66 105 65 
66 -135 -65 
66 -135 -105 
66 -105 -65 
-67 136 66 
-67 136 106 
-67 106 66 
67 -136 -66 
67 -136 -106 
67 -106 -66 
-68 137 67 
-68 137 107 
-68 107 67 
68 -137 -67 
68 -137 -107 
68 -107 -67 
138 102 132 -62 
138 102 -132 62 
138 -102 132 62 
138 -102 -132 -62 
-138 102 132 62 
-138 102 -132 -62 
-138 -102 132 -62 
-138 -102 -132 62 
139 103 133 -63 
139 103 -133 63 
139 -103 133 63 
139 -103 -133 -63 
-139 103 133 63 
-139 103 -133 -63 
-139 -103 133 -63 
-139 -103 -133 63 
140 104 134 -64 
140 104 -134 64 
140 -104 134 64 
140 -104 -134 -64 
-140 104 134 64 
-140 104 -134 -64 
-140 -104 134 -64 
-140 -104 -134 64 
141 105 135 -65 
141 105 -135 65 
141 -105 135 65 
141 -105 -135 -65 
-141 105 135 65 
-141 105 -135 -65 
-141 -105 135 -65 
-141 -105 -135 65 
142 106 136 -66 
142 106 -136 66 
142 -106 136 66 
142 -106 -136 -66 
-142 106 136 66 
-142 106 -136 -66 
-142 -106 136 -66 
-142 -106 -136 66 
143 107 137 -67 
143 107 -137 67 
143 -107 137 67 
143 -107 -137 -67 
-143 107 137 67 
-143 107 -137 -67 
-143 -107 137 -67 
-143 -107 -137 67 
-69 
-75 
-70 138 69 
-70 138 108 
-70 108 69 
70 -138 -69 
70 -138 -108 
70 -108 -69 
-71 139 70 
-71 139 109 
-71 109 70 
71 -139 -70 
71 -139 -109 
71 -109 -70 
-72 140 71 
-72 140 110 
-72 110 71 
72 -140 -71 
72 -140 -110 
72 -110 -71 
-73 141 72 
-73 141 111 
-73 111 72 
73 -141 -72 
73 -141 -111 
73 -111 -72 
-74 142 73 
-74 142 112 
-74 112 73 
74 -142 -73 
74 -142 -112 
74 -112 -73 
-75 143 74 
-75 143 113 
-75 113 74 
75 -143 -74 
75 -143 -113 
75 -113 -74 
144 108 138 -69 
144 108 -138 69 
144 -108 138 69 
144 -108 -138 -69 
-144 108 138 69 
-144 108 -138 -69 
-144 -108 138 -69 
-144 -108 -138 69 
145 109 139 -70 
145 109 -139 70 
145 -109 139 70 
145 -109 -139 -70 
-145 109 139 70 
-145 109 -139 -70 
-145 -109 139 -70 
-145 -109 -139 70 
146 110 140 -71 
146 110 -140 71 
146 -110 140 71 
146 -110 -140 -71 
-146 110 140 71 
-146 110 -140 -71 
-146 -110 140 -71 
-146 -110 -140 71 
147 111 141 -72 
147 111 -141 72 
147 -111 141 72 
147 -111 -141 -72 
-147 111 141 72 
-147 111 -141 -72 
-147 -111 141 -72 
-147 -111 -141 72 
148 112 142 -73 
148 112 -142 73 
148 -112 142 73 
148 -112 -142 -73 
-148 112 142 73 
-148 112 -142 -73 
-148 -112 142 -73 
-148 -112 -142 73 
149 113 143 -74 
149 113 -143 74 
149 -113 143 74 
149 -113 -143 -74 
-149 113 143 74 
-149 113 -143 -74 
-149 -113 143 -74 
-149 -113 -143 74 
-76 
-82 
-77 144 76 
-77 144 114 
-77 114 76 
77 -144 -76 
77 -144 -114 
77 -114 -76 
-78 145 77 
-78 145 115 
-78 115 77 
78 -145 -77 
78 -145 -115 
78 -115 -77 
-79 146 78 
-79 146 116 
-79 116 78 
79 -146 -78 
79 -146 -116 
79 -116 -78 
-80 147 79 
-80 147 117 
-80 117 79 
80 -147 -79 
80 -147 -117 
80 -117 -79 
-81 148 80 
-81 148 118 
-81 118 80 
81 -148 -80 
81 -148 -118 
81 -118 -80 
-82 149 81 
-82 149 119 
-82 119 81 
82 -149 -81 
82 -149 -119 
82 -119 -81 
150 114 144 -76 
150 114 -144 76 
150 -114 144 76 
150 -114 -144 -76 
-150 114 144 76 
-150 114 -144 -76 
-150 -114 144 -76 
-150 -114 -144 76 
151 115 145 -77 
151 115 -145 77 
151 -115 145 77 
151 -115 -145 -77 
-151 115 145 77 
-151 115 -145 -77 
-151 -115 145 -77 
-151 -115 -145 77 
152 116 146 -78 
152 116 -146 78 
152 -116 146 78 
152 -116 -146 -78 
-152 116 146 78 
-152 116 -146 -78 
-152 -116 146 -78 
-152 -116 -146 78 
153 117 147 -79 
153 117 -147 79 
153 -117 147 79 
153 -117 -147 -79 
-153 117 147 79 
-153 117 -147 -79 
-153 -117 147 -79 
-153 -117 -147 79 
154 118 148 -80 
154 118 -148 80 
154 -118 148 80 
154 -118 -148 -80 
-154 118 148 80 
-154 118 -148 -80 
-154 -118 148 -80 
-154 -118 -148 80 
155 119 149 -81 
155 119 -149 81 
155 -119 149 81 
155 -119 -149 -81 
-155 119 149 81 
-155 119 -149 -81 
-155 -119 149 -81 
-155 -119 -149 81 
-83 
-89 
-84 150 83 
-84 150 120 
-84 120 83 
84 -150 -83 
84 -150 -120 
84 -120 -83 
-85 151 84 
-85 151 121 
-85 121 84 
85 -151 -84 
85 -151 -121 
85 -121 -84 
-86 152 85 
-86 152 122 
-86 122 85 
86 -152 -85 
86 -152 -122 
86 -122 -85 
-87 153 86 
-87 153 123 
-87 123 86 
87 -153 -86 
87 -153 -123 
87 -123 -86 
-88 154 87 
-88 154 124 
-88 124 87 
88 -154 -87 
88 -154 -124 
88 -124 -87 
-89 155 88 
-89 155 125 
-89 125 88 
89 -155 -88 
89 -155 -125 
89 -125 -88 
156 120 150 -83 
156 120 -150 83 
156 -120 150 83 
156 -120 -150 -83 
-156 120 150 83 
-156 120 -150 -83 
-156 -120 150 -83 
-156 -120 -150 83 
157 121 151 -84 
157 121 -151 84 
157 -121 151 84 
157 -121 -151 -84 
-157 121 151 84 
-157 121 -151 -84 
-157 -121 151 -84 
-157 -121 -151 84 
158 122 152 -85 
158 122 -152 85 
158 -122 152 85 
158 -122 -152 -85 
-158 122 152 85 
-158 122 -152 -85 
-158 -122 152 -85 
-158 -122 -152 85 
159 123 153 -86 
159 123 -153 86 
159 -123 153 86 
159 -123 -153 -86 
-159 123 153 86 
-159 123 -153 -86 
-159 -123 153 -86 
-159 -123 -153 86 
160 124 154 -87 
160 124 -154 87 
160 -124 154 87 
160 -124 -154 -87 
-160 124 154 87 
-160 124 -154 -87 
-160 -124 154 -87 
-160 -124 -154 87 
161 125 155 -88 
161 125 -155 88 
161 -125 155 88 
161 -125 -155 -88 
-161 125 155 88 
-161 125 -155 -88 
-161 -125 155 -88 
-161 -125 -155 88 
1 -156 
-1 156 
2 -157 
-2 157 
3 -158 
-3 158 
4 -159 
-4 159 
5 -160 
-5 160 
6 -161 
-6 161 
-8 -18 
-9 -17 
-9 -18 
-10 -16 
-10 -17 
-10 -18 
-11 -15 
-11 -16 
-11 -17 
-11 -18 
-12 -14 
-12 -15 
-12 -16 
-12 -17 
-12 -18 
-16 
-17 
-18 
-13 14 15 16 17 18 
